RT is False
Default write of storage_offers_DA.csv just to have a file (but constraint should be inactive)
Reading model...
...model read.
creating competitive generators file...
...competitive generators recorded.
Loading data...
.. day-ahead data with real-time VRE data read.
Compiling instance...
...instance created.
Creating Offer Mitigation (model will solve as dispatch if TRUE)...
Solving...

Welcome to IBM(R) ILOG(R) CPLEX(R) Interactive Optimizer 12.9.0.0
  with Simplex, Mixed Integer & Barrier Optimizers
5725-A06 5725-A29 5724-Y48 5724-Y49 5724-Y54 5724-Y55 5655-Y21
Copyright IBM Corp. 1988, 2019.  All Rights Reserved.

Type 'help' for a list of available commands.
Type 'help' followed by a command name for more
information on commands.

CPLEX> Logfile 'cplex.log' closed.
Logfile 'C:\Users\Luke\Desktop\test919\logs\tmpsmhg24z6.cplex.log' open.
CPLEX> New value for parallel optimization mode: -1
CPLEX> New value for mixed integer optimality gap tolerance: 0.01
CPLEX> New value for integrality tolerance: 1e-09
CPLEX> New value for feasibility tolerance: 0.01
CPLEX> New value for deterministic time limit in ticks: 75000
CPLEX> Problem 'C:\Users\Luke\Desktop\test919\logs\tmp6tnh9i16.pyomo.lp' read.
Read time = 0.05 sec. (3.04 ticks)
CPLEX> Problem name         : C:\Users\Luke\Desktop\test919\logs\tmp6tnh9i16.pyomo.lp
Objective sense      : Minimize
Variables            :   26081  [Nneg: 1,  Box: 21616,  Free: 4464]
Objective nonzeros   :    2496
Linear constraints   :   27515  [Less: 14006,  Greater: 4416,  Equal: 9093]
  Nonzeros           :   89219
  RHS nonzeros       :   12271

Variables            : Min LB: -5000.000        Max UB: 1000000.       
Objective nonzeros   : Min   : 15.73158         Max   : 124.0997       
Linear constraints   :
  Nonzeros           : Min   : 0.8500000        Max   : 3000.000       
  RHS nonzeros       : Min   : 0.008333333      Max   : 5000.000       
CPLEX> CPXPARAM_Parallel                                -1
CPXPARAM_Simplex_Tolerances_Feasibility          0.01
CPXPARAM_DetTimeLimit                            75000
CPXPARAM_MIP_Tolerances_MIPGap                   0.01
CPXPARAM_MIP_Tolerances_Integrality              1.0000000000000001e-09
Parallel mode: opportunistic, using up to 12 threads for concurrent optimization.
Tried aggregator 1 time.
LP Presolve eliminated 21377 rows and 15487 columns.
Aggregator did 750 substitutions.
Reduced LP has 5388 rows, 9844 columns, and 31780 nonzeros.
Presolve time = 0.05 sec. (30.21 ticks)
Symmetry aggregator did 5563 additional substitutions.

Iteration log . . .
Iteration:     1   Dual objective     =             0.000000
Perturbation started.
Iteration:   101   Dual objective     =             0.000000
Iteration:   326   Dual objective     =             1.268853
Iteration:   610   Dual objective     =             1.885755
Iteration:   871   Dual objective     =             2.050778
Iteration:  1087   Dual objective     =             2.167188
Iteration:  1357   Dual objective     =             2.210178
Iteration:  1605   Dual objective     =             2.239155
Iteration:  1834   Dual objective     =             2.257478
Iteration:  2026   Dual objective     =             2.276921
Iteration:  2219   Dual objective     =             2.289672
Iteration:  2474   Dual objective     =             2.302360
Iteration:  2886   Dual objective     =             2.312147
Removing perturbation.

Dual crossover.
  Dual:  Fixed no variables.
  Primal:  Fixing 1 variable.
Using devex.

Primal simplex solved model.


Primal simplex - Optimal:  Objective =  0.0000000000e+00
Solution time =    0.13 sec.  Iterations = 1507 (1143)
Deterministic time = 79.17 ticks  (633.39 ticks/sec)

CPLEX> Solution written to file 'C:\Users\Luke\Desktop\test919\logs\tmph6kryqg1.cplex.sol'.
CPLEX> Exporting results... 
...storage offer mitigation file created
Converting model to MPEC...
...converted
NOTE: initial MIP solve with only storage competitive to get feasible solution
Solving...

Welcome to IBM(R) ILOG(R) CPLEX(R) Interactive Optimizer 12.9.0.0
  with Simplex, Mixed Integer & Barrier Optimizers
5725-A06 5725-A29 5724-Y48 5724-Y49 5724-Y54 5724-Y55 5655-Y21
Copyright IBM Corp. 1988, 2019.  All Rights Reserved.

Type 'help' for a list of available commands.
Type 'help' followed by a command name for more
information on commands.

CPLEX> Logfile 'cplex.log' closed.
Logfile 'C:\Users\Luke\Desktop\test919\logs\tmphx9ptzto.cplex.log' open.
CPLEX> New value for parallel optimization mode: -1
CPLEX> New value for mixed integer optimality gap tolerance: 0.01
CPLEX> New value for integrality tolerance: 1e-09
CPLEX> New value for feasibility tolerance: 0.01
CPLEX> New value for deterministic time limit in ticks: 75000
CPLEX> Problem 'C:\Users\Luke\Desktop\test919\logs\tmpuiqi3l15.pyomo.lp' read.
Read time = 0.20 sec. (14.78 ticks)
CPLEX> Problem name         : C:\Users\Luke\Desktop\test919\logs\tmpuiqi3l15.pyomo.lp
Objective sense      : Maximize
Variables            :   53805  [Nneg: 1,  Box: 22000,  Free: 4464,
                                 Binary: 27340]
Objective nonzeros   :    9029
Linear constraints   :  123205  [Less: 41346,  Greater: 59096,  Equal: 22763]
  Nonzeros           :  291753
  RHS nonzeros       :   67395

Variables            : Min LB: -5000.000        Max UB: 1000000.       
Objective nonzeros   : Min   : 0.008333333      Max   : 2500.000       
Linear constraints   :
  Nonzeros           : Min   : 0.008333333      Max   : 1000000.       
  RHS nonzeros       : Min   : 0.008333333      Max   : 1000000.       
CPLEX> CPXPARAM_Parallel                                -1
CPXPARAM_Simplex_Tolerances_Feasibility          0.01
CPXPARAM_DetTimeLimit                            75000
CPXPARAM_MIP_Tolerances_MIPGap                   0.01
CPXPARAM_MIP_Tolerances_Integrality              1.0000000000000001e-09
Tried aggregator 3 times.
MIP Presolve eliminated 88661 rows and 18985 columns.
MIP Presolve added 3378 rows and 0 columns.
MIP Presolve modified 24873 coefficients.
Aggregator did 13009 substitutions.
Reduced MIP has 24913 rows, 21255 columns, and 71049 nonzeros.
Reduced MIP has 8410 binaries, 0 generals, 0 SOSs, and 0 indicators.
Presolve time = 0.23 sec. (173.79 ticks)
Probing fixed 399 vars, tightened 2858 bounds.
Probing time = 1.94 sec. (881.30 ticks)
Tried aggregator 2 times.
MIP Presolve eliminated 907 rows and 807 columns.
MIP Presolve modified 2213 coefficients.
Aggregator did 37 substitutions.
Reduced MIP has 23969 rows, 20411 columns, and 68312 nonzeros.
Reduced MIP has 8007 binaries, 0 generals, 0 SOSs, and 0 indicators.
Presolve time = 0.09 sec. (69.10 ticks)
Probing time = 0.05 sec. (15.55 ticks)
Clique table members: 6336.
MIP emphasis: balance optimality and feasibility.
MIP search method: dynamic search.
Parallel mode: opportunistic, using up to 12 threads.
Root relaxation solution time = 0.42 sec. (488.36 ticks)

        Nodes                                         Cuts/
   Node  Left     Objective  IInf  Best Integer    Best Bound    ItCnt     Gap

      0     0        0.0000   633                      0.0000     6177         
*     0+    0                            0.0000        0.0000             0.00%
      0     0        cutoff              0.0000        0.0000     6177    0.00%
Elapsed time = 3.63 sec. (2074.78 ticks, tree = 0.01 MB, solutions = 1)

Root node processing (before b&c):
  Real time             =    3.63 sec. (2076.72 ticks)
Parallel b&c, 12 threads:
  Real time             =    0.00 sec. (0.00 ticks)
  Sync time (average)   =    0.00 sec.
  Wait time (average)   =    0.00 sec.
                          ------------
Total (root+branch&cut) =    3.63 sec. (2076.72 ticks)

Solution pool: 1 solution saved.

MIP - Integer optimal solution:  Objective =  0.0000000000e+00
Solution time =    3.64 sec.  Iterations = 6177  Nodes = 0
Deterministic time = 2076.88 ticks  (570.41 ticks/sec)

CPLEX> Incumbent solution written to file 'C:\Users\Luke\Desktop\test919\logs\tmpypqr5q56.cplex.sol'.
CPLEX> NOTE: no warmstart specified for MIP iteration, default behavior is true
NOTE: resolving with all competitive generators using storage-only solution to warmstart
Solving...

Welcome to IBM(R) ILOG(R) CPLEX(R) Interactive Optimizer 12.9.0.0
  with Simplex, Mixed Integer & Barrier Optimizers
5725-A06 5725-A29 5724-Y48 5724-Y49 5724-Y54 5724-Y55 5655-Y21
Copyright IBM Corp. 1988, 2019.  All Rights Reserved.

Type 'help' for a list of available commands.
Type 'help' followed by a command name for more
information on commands.

CPLEX> Logfile 'cplex.log' closed.
Logfile 'C:\Users\Luke\Desktop\test919\logs\tmploulb0fl.cplex.log' open.
CPLEX> New value for parallel optimization mode: -1
CPLEX> New value for mixed integer optimality gap tolerance: 0.01
CPLEX> New value for integrality tolerance: 1e-09
CPLEX> New value for feasibility tolerance: 0.01
CPLEX> New value for deterministic time limit in ticks: 75000
CPLEX> Problem 'C:\Users\Luke\Desktop\test919\logs\tmp57q6v9c9.pyomo.lp' read.
Read time = 0.20 sec. (14.81 ticks)
CPLEX> MIP start file 'C:\Users\Luke\Desktop\test919\logs\tmpram5p5k5.cplex.mst' read.
CPLEX> Problem name         : C:\Users\Luke\Desktop\test919\logs\tmp57q6v9c9.pyomo.lp
Objective sense      : Maximize
Variables            :   54525  [Nneg: 1,  Box: 22720,  Free: 4464,
                                 Binary: 27340]
Objective nonzeros   :    9725
Linear constraints   :  123205  [Less: 41346,  Greater: 59096,  Equal: 22763]
  Nonzeros           :  291753
  RHS nonzeros       :   67395

Variables            : Min LB: -5000.000        Max UB: 1000000.       
Objective nonzeros   : Min   : 0.008333333      Max   : 2500.000       
Linear constraints   :
  Nonzeros           : Min   : 0.008333333      Max   : 1000000.       
  RHS nonzeros       : Min   : 0.008333333      Max   : 1000000.       
CPLEX> CPXPARAM_Parallel                                -1
CPXPARAM_Simplex_Tolerances_Feasibility          0.01
CPXPARAM_DetTimeLimit                            75000
CPXPARAM_MIP_Tolerances_MIPGap                   0.01
CPXPARAM_MIP_Tolerances_Integrality              1.0000000000000001e-09
Warning:  No solution found from 1 MIP starts.
Retaining values of one MIP start for possible repair.
Tried aggregator 3 times.
MIP Presolve eliminated 88661 rows and 19705 columns.
MIP Presolve added 3378 rows and 0 columns.
MIP Presolve modified 24873 coefficients.
Aggregator did 13009 substitutions.
Reduced MIP has 24913 rows, 21255 columns, and 71049 nonzeros.
Reduced MIP has 8410 binaries, 0 generals, 0 SOSs, and 0 indicators.
Presolve time = 0.25 sec. (174.15 ticks)
Probing fixed 399 vars, tightened 2858 bounds.
Probing time = 1.55 sec. (881.30 ticks)
Tried aggregator 2 times.
MIP Presolve eliminated 907 rows and 807 columns.
MIP Presolve modified 2213 coefficients.
Aggregator did 37 substitutions.
Reduced MIP has 23969 rows, 20411 columns, and 68312 nonzeros.
Reduced MIP has 8007 binaries, 0 generals, 0 SOSs, and 0 indicators.
Presolve time = 0.09 sec. (69.10 ticks)
Probing time = 0.03 sec. (15.55 ticks)
Clique table members: 6336.
MIP emphasis: balance optimality and feasibility.
MIP search method: dynamic search.
Parallel mode: opportunistic, using up to 12 threads.
Root relaxation solution time = 0.38 sec. (275.87 ticks)

        Nodes                                         Cuts/
   Node  Left     Objective  IInf  Best Integer    Best Bound    ItCnt     Gap

      0     0    55839.7225  1675                  55839.7225     6580         
      0     0    53284.1864   706                   Cuts: 573     6884         
      0     0    53284.1864   607                   Cuts: 221     7046         
      0     0    53284.1864   554                   Cuts: 109     7127         
      0     0    53284.1864   536                    Cuts: 80     7179         
      0     0    53284.1864   487                    Cuts: 70     7229         
      0     0    53241.9960   482                    Cuts: 65     7275         
      0     0    53241.9960   463                    Cuts: 69     7310         
      0     0    53241.9960   455                    Cuts: 54     7352         
      0     0    53241.9960   449                    Cuts: 40     7381         
Repair heuristic found nothing.
      0     6    46920.5142   430                 Impl Bds: 3     7437         
Elapsed time = 12.20 sec. (6045.66 ticks, tree = 0.02 MB, solutions = 0)
    217    48    51019.2049   408                  53211.9220     8249         
    441   319    infeasible                        53211.9220    10988         
    611   394    48589.6511   399                  53211.9220    12720         
    910   432    infeasible                        53211.9220    14444         
   1175   439    41868.4817   377                  53211.9220    14703         
   1440   570    11788.9268   333                  53211.9220    17575         
   1713   755    11788.9268   314                  53211.9220    20190         
   1986   910      568.6756   292                  53211.9220    21285         
   2228   967      568.6756   264                  53211.9220    21566         
   3638  2008      568.6756   247                  53211.9220    23293         
Elapsed time = 25.76 sec. (9156.27 ticks, tree = 15.94 MB, solutions = 0)
*  4437+ 2201                          942.8217    53211.9220              --- 
*  4967  2198      integral     0     7087.4234    53211.9220    24379  650.79%
   5764  1929        cutoff          11788.9268    51407.8766    26535  336.07%
*  5769  1822      integral     0    13502.8716    51407.8766    27012  280.72%
   6999  1941    42642.4586   353    13502.8716    51407.8766    29305  280.72%
*  7200     0      integral     0    13502.8716                  37174     --- 

Cover cuts applied:  9
Implied bound cuts applied:  11
Flow cuts applied:  438
Mixed integer rounding cuts applied:  80
Zero-half cuts applied:  1
Gomory fractional cuts applied:  48

Root node processing (before b&c):
  Real time             =   11.89 sec. (6031.14 ticks)
Parallel b&c, 12 threads:
  Real time             =   26.25 sec. (8174.22 ticks)
  Sync time (average)   =    0.15 sec.
  Wait time (average)   =    0.00 sec.
                          ------------
Total (root+branch&cut) =   38.14 sec. (14205.36 ticks)

Solution pool: 10 solutions saved.

MIP - Integer optimal solution:  Objective =  1.3502871564e+04
Solution time =   38.14 sec.  Iterations = 37174  Nodes = 7200
Deterministic time = 14205.52 ticks  (372.46 ticks/sec)

CPLEX> Incumbent solution written to file 'C:\Users\Luke\Desktop\test919\logs\tmp3ykin_sl.cplex.sol'.
CPLEX> Exporting results... 
